2
1000 3
85
256 1 3
385 1 1
258 1 2
259 1 4
261 1 1
262 1 2
391 1 1
264 1 2
265 1 1
267 1 2
268 1 3
398 1 1
418 1 2
272 1 1
408 1 2
274 1 1
275 1 1
276 1 1
278 1 1
407 1 1
280 1 1
476 1 1
282 1 3
284 1 1
410 1 1
286 1 3
287 1 1
417 1 1
290 1 1
292 1 2
421 1 1
295 1 2
424 1 1
297 1 1
298 1 1
455 1 1
300 1 2
304 1 2
306 1 1
308 1 1
309 1 1
438 1 1
393 1 1
312 1 1
313 1 1
314 1 1
428 1 1
444 1 1
317 1 2
318 1 1
323 1 2
453 1 1
327 1 2
329 1 1
458 1 1
460 1 1
395 1 1
334 1 1
461 1 1
338 1 1
339 1 1
340 1 1
469 1 1
457 1 1
473 1 1
346 1 1
493 1 1
348 1 1
477 1 1
400 1 1
355 1 1
488 1 2
466 1 1
366 1 1
495 1 2
369 1 1
370 1 1
499 1 1
373 1 1
250 1 6
251 1 2
252 1 1
253 1 1
254 1 2
255 1 3
